! xTB2

*xyzfile -1 1 init.xyz

%cpcm
 smd true
 SMDsolvent "METHANOL"
end

%pal
 nprocs 2
end
