! xTB2 Opt NumFreq

*xyzfile 0 1 init.xyz

%cpcm
 smd true
 SMDsolvent "METHANOL"
end

%pal
 nprocs 6
end
