! xTB2 Opt NumFreq

*xyzfile -1 1 init.xyz

%cpcm
 smd true
 SMDsolvent "METHANOL"
end

%pal
 nprocs 4
end
